array [1..3] of int: X_INTRODUCED_20_ = [-1,1,-1];
var 1..9: x:: output_var;
var 1..9: y:: output_var;
var int: X_INTRODUCED_0_;
var int: X_INTRODUCED_1_;
var int: X_INTRODUCED_2_;
var int: X_INTRODUCED_3_;
var int: X_INTRODUCED_4_;
var int: X_INTRODUCED_5_;
var int: X_INTRODUCED_6_;
var int: X_INTRODUCED_7_;
var int: X_INTRODUCED_8_;
var int: X_INTRODUCED_9_;
var int: X_INTRODUCED_10_;
var int: X_INTRODUCED_11_;
var int: X_INTRODUCED_12_;
var int: X_INTRODUCED_13_;
var int: X_INTRODUCED_14_;
var int: X_INTRODUCED_15_;
var int: X_INTRODUCED_16_;
var int: X_INTRODUCED_17_;
var int: X_INTRODUCED_18_;
var int: X_INTRODUCED_19_;
var 1..922: X:: output_var;
array [1..20] of var int: a:: output_array([1..2,1..10]) = [X_INTRODUCED_0_,X_INTRODUCED_1_,X_INTRODUCED_2_,X_INTRODUCED_3_,X_INTRODUCED_4_,X_INTRODUCED_5_,X_INTRODUCED_6_,X_INTRODUCED_7_,X_INTRODUCED_8_,X_INTRODUCED_9_,X_INTRODUCED_10_,X_INTRODUCED_11_,X_INTRODUCED_12_,X_INTRODUCED_13_,X_INTRODUCED_14_,X_INTRODUCED_15_,X_INTRODUCED_16_,X_INTRODUCED_17_,X_INTRODUCED_18_,X_INTRODUCED_19_];
constraint int_lin_eq(X_INTRODUCED_20_,[x,X,y],0);
solve  satisfy;
